Solver command line: ['C:\\Program Files\\IBM\\ILOG\\CPLEX_Studio2211\\cplex\\bin\\x64_win64\\cplex.exe']


Welcome to IBM(R) ILOG(R) CPLEX(R) Interactive Optimizer 22.1.1.0
  with Simplex, Mixed Integer & Barrier Optimizers
5725-A06 5725-A29 5724-Y48 5724-Y49 5724-Y54 5724-Y55 5655-Y21
Copyright IBM Corp. 1988, 2022.  All Rights Reserved.

Type 'help' for a list of available commands.
Type 'help' followed by a command name for more
information on commands.

CPLEX> Logfile 'cplex.log' closed.
Logfile 'C:\Users\wangy\Documents\GitHub\re_optimization\result_site_specific_2\tmpzdvj0fmz.cplex.log' open.
CPLEX> Problem 'C:\Users\wangy\Documents\GitHub\re_optimization\result_site_specific_2\tmpj_lbufbr.pyomo.lp' read.
Read time = 0.30 sec. (8.89 ticks)
CPLEX> Problem name         : C:\Users\wangy\Documents\GitHub\re_optimization\result_site_specific_2\tmpj_lbufbr.pyomo.lp
Objective sense      : Minimize
Variables            :   64323  [Nneg: 30685,  Free: 11732,  Binary: 6,
                                 Other: 21900]
Objective nonzeros   :      14
Linear constraints   :   86220  [Less: 42356,  Greater: 5,  Equal: 43859]
  Nonzeros           :  219261
  RHS nonzeros       :    3723

Variables            : Min LB: 0.000000         Max UB: 1.000000       
Objective nonzeros   : Min   : 1.000000         Max   : 1.000000       
Linear constraints   :
  Nonzeros           : Min   : 0.002339912      Max   : 100000.0       
  RHS nonzeros       : Min   : 0.004000000      Max   : 100000.0       
CPLEX> Version identifier: 22.1.1.0 | 2022-11-27 | 9160aff4d
Tried aggregator 3 times.
MIP Presolve eliminated 43722 rows and 23279 columns.
Aggregator did 19904 substitutions.
Reduced MIP has 22594 rows, 21140 columns, and 69082 nonzeros.
Reduced MIP has 2 binaries, 0 generals, 0 SOSs, and 0 indicators.
Presolve time = 0.28 sec. (421.72 ticks)
Probing time = 0.00 sec. (1.51 ticks)
Tried aggregator 1 time.
Detecting symmetries...
MIP Presolve modified 2 coefficients.
Reduced MIP has 22594 rows, 21140 columns, and 69082 nonzeros.
Reduced MIP has 2 binaries, 0 generals, 0 SOSs, and 0 indicators.
Presolve time = 0.05 sec. (45.46 ticks)
Probing time = 0.00 sec. (1.39 ticks)
MIP emphasis: balance optimality and feasibility.
MIP search method: dynamic search.
Parallel mode: deterministic, using up to 16 threads.
Root relaxation solution time = 1.11 sec. (926.62 ticks)

        Nodes                                         Cuts/
   Node  Left     Objective  IInf  Best Integer    Best Bound    ItCnt     Gap

*     0+    0                      7236410.8469     -374.7030           100.01%
      0     0  1871017.4238     2  7236410.8469  1871017.4238       56   74.14%
*     0+    0                      1874277.5310  1871017.4238             0.17%
      0     0        cutoff        1874277.5310  1874277.5310     1042    0.00%
Elapsed time = 3.03 sec. (4756.01 ticks, tree = 0.01 MB, solutions = 2)

Mixed integer rounding cuts applied:  4395

Root node processing (before b&c):
  Real time             =    3.05 sec. (4758.61 ticks)
Parallel b&c, 16 threads:
  Real time             =    0.00 sec. (0.00 ticks)
  Sync time (average)   =    0.00 sec.
  Wait time (average)   =    0.00 sec.
                          ------------
Total (root+branch&cut) =    3.05 sec. (4758.61 ticks)

Solution pool: 2 solutions saved.

MIP - Integer optimal solution:  Objective =  1.8742775310e+06
Solution time =    3.05 sec.  Iterations = 1042  Nodes = 0
Deterministic time = 4758.80 ticks  (1562.31 ticks/sec)

CPLEX> Incumbent solution written to file 'C:\Users\wangy\Documents\GitHub\re_optimization\result_site_specific_2\tmpvtybwtuz.cplex.sol'.
CPLEX> 
